============================[ Problem Statistics ]=============================|                                                                             ||  Number of variables:          4242                                         ||  Number of clauses:            9806                                         ||  Parse time:                   0.21 s                                       ||                                                                             |============================[ Search Statistics ]==============================| Conflicts |          ORIGINAL         |          LEARNT          | Progress ||           |    Vars  Clauses Literals |    Limit  Clauses Lit/Cl |          |===============================================================================|       100 |    1591     6011   310902 |     2204      100     53 | 62.501 % |===============================================================================restarts              : 2conflicts             : 123            (358 /sec)decisions             : 295            (0.00 % random) (858 /sec)propagations          : 9899           (28776 /sec)conflict literals     : 7308           (95.66 % deleted)CPU time              : 0.344 sSATISFIABLE